# Solution for model problem
# Objective value = 13
CLIENT_PE3_0 1
CLIENT_PE2_2 1
CLIENT_PE13_3 1
CLIENT_PE6_4 1
src_1 1
fft_3 1
matrix_0 1
ifft_0 1
fir_1 1
angle_2 1
road_0 1
table_3 1
sink_2 1
CLIENT_PE2_0 0
CLIENT_PE4_0 0
CLIENT_PE6_0 0
CLIENT_PE13_0 0
CLIENT_PE3_2 0
CLIENT_PE4_2 0
CLIENT_PE6_2 0
CLIENT_PE13_2 0
CLIENT_PE2_3 0
CLIENT_PE3_3 0
CLIENT_PE4_3 0
CLIENT_PE6_3 0
CLIENT_PE0_4 0
CLIENT_PE2_4 0
CLIENT_PE3_4 0
CLIENT_PE4_4 0
CLIENT_PE7_4 0
CLIENT_PE13_4 0
CLIENT_PE14_4 0
src_0 0
src_2 0
src_3 0
src_4 0
fft_0 0
fft_1 0
fft_2 0
fft_4 0
sink_0 0
sink_1 0
sink_3 0
sink_4 0
matrix_1 0
matrix_2 0
matrix_3 0
matrix_4 0
road_1 0
road_2 0
road_3 0
road_4 0
table_0 0
table_1 0
table_2 0
table_4 0
ifft_1 0
ifft_2 0
ifft_3 0
ifft_4 0
angle_0 0
angle_1 0
angle_3 0
angle_4 0
fir_0 0
fir_2 0
fir_3 0
fir_4 0
